(declare-fun X0 () Int)
(declare-fun X1 () Int)
(declare-fun X2 () Int)
(declare-fun X3 () Int)
(declare-fun X4 () Int)
(declare-fun X5 () Int)
(declare-fun X6 () Int)
(declare-fun X7 () Int)
(declare-fun X8 () Int)
(declare-fun X9 () Int)
(declare-fun X10 () Int)
(declare-fun X11 () Int)
(declare-fun X12 () Int)
(declare-fun X13 () Int)
(declare-fun X14 () Int)
(declare-fun X15 () Int)
(assert (<= (- X1 X0) 5))
(assert (>= (- X1 X0) 0))
(assert (<= (- X1 X2) 5))
(assert (>= (- X1 X2) (- 5)))
(assert (<= (- X1 X3) 5))
(assert (>= (- X1 X3) (- 5)))
(assert (<= (- X1 X4) 5))
(assert (>= (- X1 X4) (- 5)))
(assert (<= (- X1 X5) 5))
(assert (>= (- X1 X5) (- 5)))
(assert (<= (- X1 X6) 5))
(assert (>= (- X1 X6) (- 5)))
(assert (<= (- X1 X7) 5))
(assert (>= (- X1 X7) (- 5)))
(assert (<= (- X1 X8) 5))
(assert (>= (- X1 X8) (- 5)))
(assert (<= (- X1 X9) 5))
(assert (>= (- X1 X9) (- 5)))
(assert (<= (- X1 X10) 5))
(assert (>= (- X1 X10) (- 5)))
(assert (<= (- X1 X11) 5))
(assert (>= (- X1 X11) (- 5)))
(assert (<= (- X1 X12) 5))
(assert (>= (- X1 X12) (- 5)))
(assert (<= (- X1 X13) 5))
(assert (>= (- X1 X13) (- 5)))
(assert (<= (- X1 X14) 5))
(assert (>= (- X1 X14) (- 5)))
(assert (<= (- X1 X15) 5))
(assert (>= (- X1 X15) (- 5)))
(assert (<= (- X2 X0) 5))
(assert (>= (- X2 X0) 0))
(assert (<= (- X2 X3) 5))
(assert (>= (- X2 X3) (- 5)))
(assert (<= (- X2 X4) 5))
(assert (>= (- X2 X4) (- 5)))
(assert (<= (- X2 X5) 5))
(assert (>= (- X2 X5) (- 5)))
(assert (<= (- X2 X6) 5))
(assert (>= (- X2 X6) (- 5)))
(assert (<= (- X2 X7) 5))
(assert (>= (- X2 X7) (- 5)))
(assert (<= (- X2 X8) 5))
(assert (>= (- X2 X8) (- 5)))
(assert (<= (- X2 X9) 5))
(assert (>= (- X2 X9) (- 5)))
(assert (<= (- X2 X10) 5))
(assert (>= (- X2 X10) (- 5)))
(assert (<= (- X2 X11) 5))
(assert (>= (- X2 X11) (- 5)))
(assert (<= (- X2 X12) 5))
(assert (>= (- X2 X12) (- 5)))
(assert (<= (- X2 X13) 5))
(assert (>= (- X2 X13) (- 5)))
(assert (<= (- X2 X14) 5))
(assert (>= (- X2 X14) (- 5)))
(assert (<= (- X2 X15) 5))
(assert (>= (- X2 X15) (- 5)))
(assert (<= (- X3 X0) 5))
(assert (>= (- X3 X0) 0))
(assert (<= (- X3 X4) 5))
(assert (>= (- X3 X4) (- 5)))
(assert (<= (- X3 X5) 5))
(assert (>= (- X3 X5) (- 5)))
(assert (<= (- X3 X6) 5))
(assert (>= (- X3 X6) (- 5)))
(assert (<= (- X3 X7) 5))
(assert (>= (- X3 X7) (- 5)))
(assert (<= (- X3 X8) 5))
(assert (>= (- X3 X8) (- 5)))
(assert (<= (- X3 X9) 5))
(assert (>= (- X3 X9) (- 5)))
(assert (<= (- X3 X10) 5))
(assert (>= (- X3 X10) (- 5)))
(assert (<= (- X3 X11) 5))
(assert (>= (- X3 X11) (- 5)))
(assert (<= (- X3 X12) 5))
(assert (>= (- X3 X12) (- 5)))
(assert (<= (- X3 X13) 5))
(assert (>= (- X3 X13) (- 5)))
(assert (<= (- X3 X14) 5))
(assert (>= (- X3 X14) (- 5)))
(assert (<= (- X3 X15) 5))
(assert (>= (- X3 X15) (- 5)))
(assert (<= (- X4 X0) 5))
(assert (>= (- X4 X0) 0))
(assert (<= (- X4 X5) 5))
(assert (>= (- X4 X5) (- 5)))
(assert (<= (- X4 X6) 5))
(assert (>= (- X4 X6) (- 5)))
(assert (<= (- X4 X7) 5))
(assert (>= (- X4 X7) (- 5)))
(assert (<= (- X4 X8) 5))
(assert (>= (- X4 X8) (- 5)))
(assert (<= (- X4 X9) 5))
(assert (>= (- X4 X9) (- 5)))
(assert (<= (- X4 X10) 5))
(assert (>= (- X4 X10) (- 5)))
(assert (<= (- X4 X11) 5))
(assert (>= (- X4 X11) (- 5)))
(assert (<= (- X4 X12) 5))
(assert (>= (- X4 X12) (- 5)))
(assert (<= (- X4 X13) 5))
(assert (>= (- X4 X13) (- 5)))
(assert (<= (- X4 X14) 5))
(assert (>= (- X4 X14) (- 5)))
(assert (<= (- X4 X15) 5))
(assert (>= (- X4 X15) (- 5)))
(assert (<= (- X5 X0) 5))
(assert (>= (- X5 X0) 0))
(assert (<= (- X5 X6) 5))
(assert (>= (- X5 X6) (- 5)))
(assert (<= (- X5 X7) 5))
(assert (>= (- X5 X7) (- 5)))
(assert (<= (- X5 X8) 5))
(assert (>= (- X5 X8) (- 5)))
(assert (<= (- X5 X9) 5))
(assert (>= (- X5 X9) (- 5)))
(assert (<= (- X5 X10) 5))
(assert (>= (- X5 X10) (- 5)))
(assert (<= (- X5 X11) 5))
(assert (>= (- X5 X11) (- 5)))
(assert (<= (- X5 X12) 5))
(assert (>= (- X5 X12) (- 5)))
(assert (<= (- X5 X13) 5))
(assert (>= (- X5 X13) (- 5)))
(assert (<= (- X5 X14) 5))
(assert (>= (- X5 X14) (- 5)))
(assert (<= (- X5 X15) 5))
(assert (>= (- X5 X15) (- 5)))
(assert (<= (- X6 X0) 5))
(assert (>= (- X6 X0) 0))
(assert (<= (- X6 X7) 5))
(assert (>= (- X6 X7) (- 5)))
(assert (<= (- X6 X8) 5))
(assert (>= (- X6 X8) (- 5)))
(assert (<= (- X6 X9) 5))
(assert (>= (- X6 X9) (- 5)))
(assert (<= (- X6 X10) 5))
(assert (>= (- X6 X10) (- 5)))
(assert (<= (- X6 X11) 5))
(assert (>= (- X6 X11) (- 5)))
(assert (<= (- X6 X12) 5))
(assert (>= (- X6 X12) (- 5)))
(assert (<= (- X6 X13) 5))
(assert (>= (- X6 X13) (- 5)))
(assert (<= (- X6 X14) 5))
(assert (>= (- X6 X14) (- 5)))
(assert (<= (- X6 X15) 5))
(assert (>= (- X6 X15) (- 5)))
(assert (<= (- X7 X0) 5))
(assert (>= (- X7 X0) 0))
(assert (<= (- X7 X8) 5))
(assert (>= (- X7 X8) (- 5)))
(assert (<= (- X7 X9) 5))
(assert (>= (- X7 X9) (- 5)))
(assert (<= (- X7 X10) 5))
(assert (>= (- X7 X10) (- 5)))
(assert (<= (- X7 X11) 5))
(assert (>= (- X7 X11) (- 5)))
(assert (<= (- X7 X12) 5))
(assert (>= (- X7 X12) (- 5)))
(assert (<= (- X7 X13) 5))
(assert (>= (- X7 X13) (- 5)))
(assert (<= (- X7 X14) 5))
(assert (>= (- X7 X14) (- 5)))
(assert (<= (- X7 X15) 5))
(assert (>= (- X7 X15) (- 5)))
(assert (<= (- X8 X0) 5))
(assert (>= (- X8 X0) 0))
(assert (<= (- X8 X9) 5))
(assert (>= (- X8 X9) (- 5)))
(assert (<= (- X8 X10) 5))
(assert (>= (- X8 X10) (- 5)))
(assert (<= (- X8 X11) 5))
(assert (>= (- X8 X11) (- 5)))
(assert (<= (- X8 X12) 5))
(assert (>= (- X8 X12) (- 5)))
(assert (<= (- X8 X13) 5))
(assert (>= (- X8 X13) (- 5)))
(assert (<= (- X8 X14) 5))
(assert (>= (- X8 X14) (- 5)))
(assert (<= (- X8 X15) 5))
(assert (>= (- X8 X15) (- 5)))
(assert (<= (- X9 X0) 5))
(assert (>= (- X9 X0) 0))
(assert (<= (- X9 X10) 5))
(assert (>= (- X9 X10) (- 5)))
(assert (<= (- X9 X11) 5))
(assert (>= (- X9 X11) (- 5)))
(assert (<= (- X9 X12) 5))
(assert (>= (- X9 X12) (- 5)))
(assert (<= (- X9 X13) 5))
(assert (>= (- X9 X13) (- 5)))
(assert (<= (- X9 X14) 5))
(assert (>= (- X9 X14) (- 5)))
(assert (<= (- X9 X15) 5))
(assert (>= (- X9 X15) (- 5)))
(assert (<= (- X10 X0) 5))
(assert (>= (- X10 X0) 0))
(assert (<= (- X10 X11) 5))
(assert (>= (- X10 X11) (- 5)))
(assert (<= (- X10 X12) 5))
(assert (>= (- X10 X12) (- 5)))
(assert (<= (- X10 X13) 5))
(assert (>= (- X10 X13) (- 5)))
(assert (<= (- X10 X14) 5))
(assert (>= (- X10 X14) (- 5)))
(assert (<= (- X10 X15) 5))
(assert (>= (- X10 X15) (- 5)))
(assert (<= (- X11 X0) 5))
(assert (>= (- X11 X0) 0))
(assert (<= (- X11 X12) 5))
(assert (>= (- X11 X12) (- 5)))
(assert (<= (- X11 X13) 5))
(assert (>= (- X11 X13) (- 5)))
(assert (<= (- X11 X14) 5))
(assert (>= (- X11 X14) (- 5)))
(assert (<= (- X11 X15) 5))
(assert (>= (- X11 X15) (- 5)))
(assert (<= (- X12 X0) 5))
(assert (>= (- X12 X0) 0))
(assert (<= (- X12 X13) 5))
(assert (>= (- X12 X13) (- 5)))
(assert (<= (- X12 X14) 5))
(assert (>= (- X12 X14) (- 5)))
(assert (<= (- X12 X15) 5))
(assert (>= (- X12 X15) (- 5)))
(assert (<= (- X13 X0) 5))
(assert (>= (- X13 X0) 0))
(assert (<= (- X13 X14) 5))
(assert (>= (- X13 X14) (- 5)))
(assert (<= (- X13 X15) 5))
(assert (>= (- X13 X15) (- 5)))
(assert (<= (- X14 X0) 5))
(assert (>= (- X14 X0) 0))
(assert (<= (- X14 X15) 5))
(assert (>= (- X14 X15) (- 5)))
(assert (<= (- X15 X0) 5))
(assert (>= (- X15 X0) 0))
(check-sat)
